[VALIDATOR STDOUT]
Checking plan: /home/fjl2401/Safety-gen/benchmark_problems/ferry/optic_results/ferry-l19-c10-s19002.plan
Plan executed successfully - checking goal
Goal not satisfied
Plan invalid


Failed plans:
 /home/fjl2401/Safety-gen/benchmark_problems/ferry/optic_results/ferry-l19-c10-s19002.plan
